c Created with the Wolfram Language : www.wolfram.com
c 
p edge 90 586
e 2 6
e 3 7
e 6 7
e 5 8
e 1 9
e 5 9
e 3 10
e 5 10
e 8 10
e 4 11
e 5 11
e 6 11
e 14 15
e 6 16
e 10 16
e 13 16
e 14 16
e 15 16
e 8 17
e 12 17
e 1 18
e 11 18
e 15 18
e 5 19
e 18 19
e 1 20
e 10 20
e 18 20
e 2 21
e 20 21
e 4 22
e 6 22
e 17 22
e 18 22
e 12 23
e 13 23
e 14 23
e 22 23
e 1 24
e 3 24
e 19 24
e 22 24
e 19 25
e 1 26
e 4 26
e 6 26
e 13 26
e 20 26
e 9 27
e 11 27
e 12 27
e 15 27
e 20 27
e 2 28
e 5 28
e 7 28
e 25 28
e 26 28
e 7 29
e 11 29
e 17 29
e 26 29
e 1 30
e 12 30
e 13 30
e 20 30
e 21 30
e 25 30
e 26 30
e 27 30
e 5 31
e 11 31
e 24 31
e 7 32
e 11 32
e 15 32
e 22 32
e 1 33
e 3 33
e 11 33
e 19 33
e 23 33
e 29 33
e 31 33
e 4 34
e 9 34
e 15 34
e 19 34
e 23 34
e 1 35
e 4 35
e 6 35
e 7 35
e 14 35
e 22 35
e 27 35
e 2 36
e 11 36
e 16 36
e 19 36
e 15 37
e 19 37
e 21 37
e 24 37
e 29 37
e 31 37
e 32 37
e 2 38
e 4 38
e 12 38
e 15 38
e 23 38
e 22 39
e 28 39
e 29 39
e 36 39
e 1 40
e 22 40
e 24 40
e 36 40
e 37 40
e 3 41
e 4 41
e 9 41
e 12 41
e 15 41
e 17 41
e 26 41
e 34 41
e 1 42
e 4 42
e 6 42
e 7 42
e 9 42
e 38 42
e 39 42
e 2 43
e 12 43
e 18 43
e 20 43
e 29 43
e 37 43
e 1 44
e 2 44
e 7 44
e 11 44
e 15 44
e 16 44
e 18 44
e 22 44
e 25 44
e 32 44
e 41 44
e 13 45
e 23 45
e 30 45
e 32 45
e 36 45
e 4 46
e 16 46
e 24 46
e 26 46
e 36 46
e 38 46
e 44 46
e 9 47
e 16 47
e 24 47
e 37 47
e 39 47
e 5 48
e 20 48
e 31 48
e 32 48
e 43 48
e 12 49
e 13 49
e 15 49
e 18 49
e 27 49
e 29 49
e 35 49
e 14 50
e 22 50
e 30 50
e 33 50
e 42 50
e 46 50
e 48 50
e 30 51
e 31 51
e 32 51
e 39 51
e 47 51
e 4 52
e 8 52
e 11 52
e 19 52
e 20 52
e 26 52
e 31 52
e 51 52
e 11 53
e 20 53
e 23 53
e 37 53
e 48 53
e 50 53
e 7 54
e 17 54
e 21 54
e 24 54
e 25 54
e 39 54
e 40 54
e 48 54
e 50 54
e 7 55
e 11 55
e 12 55
e 13 55
e 15 55
e 19 55
e 20 55
e 26 55
e 28 55
e 44 55
e 53 55
e 54 55
e 3 56
e 11 56
e 16 56
e 17 56
e 25 56
e 26 56
e 30 56
e 31 56
e 36 56
e 53 56
e 5 57
e 11 57
e 16 57
e 17 57
e 26 57
e 29 57
e 34 57
e 42 57
e 45 57
e 54 57
e 6 58
e 11 58
e 16 58
e 19 58
e 23 58
e 34 58
e 37 58
e 5 59
e 24 59
e 29 59
e 37 59
e 50 59
e 53 59
e 55 59
e 1 60
e 8 60
e 12 60
e 25 60
e 35 60
e 37 60
e 52 60
e 55 60
e 2 61
e 5 61
e 17 61
e 20 61
e 31 61
e 37 61
e 45 61
e 56 61
e 60 61
e 12 62
e 20 62
e 33 62
e 39 62
e 42 62
e 50 62
e 20 63
e 41 63
e 43 63
e 27 64
e 32 64
e 56 64
e 27 65
e 40 65
e 48 65
e 61 65
e 9 66
e 19 66
e 23 66
e 32 66
e 42 66
e 43 66
e 44 66
e 55 66
e 60 66
e 64 66
e 2 67
e 19 67
e 25 67
e 26 67
e 44 67
e 45 67
e 47 67
e 54 67
e 61 67
e 62 67
e 1 68
e 9 68
e 16 68
e 26 68
e 28 68
e 31 68
e 34 68
e 36 68
e 41 68
e 42 68
e 44 68
e 45 68
e 61 68
e 1 69
e 11 69
e 12 69
e 15 69
e 24 69
e 33 69
e 47 69
e 53 69
e 54 69
e 56 69
e 64 69
e 36 70
e 39 70
e 40 70
e 47 70
e 51 70
e 55 70
e 65 70
e 10 71
e 11 71
e 12 71
e 13 71
e 14 71
e 19 71
e 22 71
e 38 71
e 39 71
e 43 71
e 47 71
e 54 71
e 60 71
e 65 71
e 1 72
e 4 72
e 11 72
e 14 72
e 16 72
e 18 72
e 20 72
e 26 72
e 32 72
e 34 72
e 40 72
e 61 72
e 67 72
e 12 73
e 18 73
e 22 73
e 31 73
e 32 73
e 41 73
e 45 73
e 47 73
e 58 73
e 5 74
e 7 74
e 15 74
e 28 74
e 29 74
e 32 74
e 35 74
e 43 74
e 47 74
e 49 74
e 53 74
e 60 74
e 65 74
e 9 75
e 17 75
e 21 75
e 40 75
e 44 75
e 50 75
e 53 75
e 56 75
e 63 75
e 72 75
e 74 75
e 7 76
e 32 76
e 38 76
e 40 76
e 44 76
e 48 76
e 53 76
e 54 76
e 55 76
e 56 76
e 75 76
e 5 77
e 11 77
e 16 77
e 17 77
e 22 77
e 24 77
e 35 77
e 39 77
e 42 77
e 51 77
e 52 77
e 63 77
e 65 77
e 72 77
e 3 78
e 21 78
e 41 78
e 44 78
e 53 78
e 58 78
e 60 78
e 62 78
e 8 79
e 12 79
e 20 79
e 27 79
e 29 79
e 34 79
e 40 79
e 62 79
e 66 79
e 77 79
e 7 80
e 17 80
e 32 80
e 34 80
e 62 80
e 70 80
e 75 80
e 11 81
e 14 81
e 15 81
e 17 81
e 18 81
e 42 81
e 51 81
e 52 81
e 54 81
e 64 81
e 70 81
e 72 81
e 74 81
e 6 82
e 18 82
e 29 82
e 37 82
e 46 82
e 51 82
e 60 82
e 61 82
e 62 82
e 67 82
e 70 82
e 79 82
e 6 83
e 8 83
e 20 83
e 24 83
e 27 83
e 29 83
e 31 83
e 43 83
e 50 83
e 55 83
e 56 83
e 57 83
e 58 83
e 75 83
e 3 84
e 5 84
e 8 84
e 16 84
e 18 84
e 22 84
e 26 84
e 35 84
e 38 84
e 47 84
e 53 84
e 56 84
e 58 84
e 65 84
e 70 84
e 71 84
e 72 84
e 74 84
e 83 84
e 4 85
e 5 85
e 9 85
e 13 85
e 16 85
e 23 85
e 24 85
e 30 85
e 38 85
e 39 85
e 45 85
e 51 85
e 58 85
e 60 85
e 62 85
e 68 85
e 78 85
e 13 86
e 17 86
e 21 86
e 29 86
e 36 86
e 41 86
e 69 86
e 78 86
e 21 87
e 28 87
e 34 87
e 36 87
e 41 87
e 44 87
e 61 87
e 67 87
e 77 87
e 85 87
e 1 88
e 4 88
e 5 88
e 7 88
e 14 88
e 18 88
e 19 88
e 27 88
e 29 88
e 30 88
e 40 88
e 50 88
e 52 88
e 56 88
e 57 88
e 62 88
e 65 88
e 68 88
e 71 88
e 77 88
e 78 88
e 81 88
e 25 89
e 26 89
e 32 89
e 36 89
e 38 89
e 55 89
e 62 89
e 77 89
e 13 90
e 14 90
e 64 90
e 75 90
e 79 90
e 86 90
